NAME: I821-n44-k6
COMMENT : (Fake et al, No of trucks: 6, Optimal value: )
TYPE : CVRP
DIMENSION : 44
EDGE_WEIGHT_TYPE : EUC_2D
CAPACITY : 22
NODE_COORD_SECTION
1 277 310
2 860 604
3 23 639
4 878 488
5 278 519
6 806 587
7 661 224
8 69 500
9 215 931
10 265 485
11 132 53
12 634 81
13 637 779
14 1000 990
15 877 164
16 878 145
17 856 376
18 213 608
19 723 267
20 150 424
21 429 803
22 3 585
23 918 361
24 777 886
25 4 30
26 457 428
27 782 232
28 486 80
29 308 307
30 418 492
31 609 608
32 11 884
33 956 233
34 116 165
35 527 882
36 441 110
37 187 610
38 520 643
39 289 818
40 359 897
41 601 943
42 436 337
43 135 560
44 443 568
DEMAND_SECTION
1 0
2 1
3 4
4 4
5 4
6 4
7 3
8 1
9 4
10 3
11 1
12 1
13 4
14 1
15 3
16 1
17 2
18 3
19 1
20 3
21 3
22 3
23 4
24 4
25 4
26 1
27 4
28 1
29 2
30 3
31 1
32 1
33 4
34 2
35 3
36 3
37 4
38 1
39 4
40 1
41 2
42 4
43 4
44 1
DEPOT_SECTION
 1
 -1
 EOF 